p edge 61 193
e 1 24
e 1 35
e 2 3
e 2 7
e 2 17
e 2 18
e 2 35
e 2 51
e 2 53
e 2 59
e 3 25
e 3 38
e 4 10
e 4 14
e 4 23
e 4 41
e 4 46
e 4 54
e 4 55
e 5 12
e 5 19
e 5 27
e 5 53
e 6 11
e 6 25
e 6 28
e 6 29
e 6 40
e 6 56
e 7 25
e 7 27
e 8 14
e 8 30
e 8 36
e 8 52
e 9 12
e 9 26
e 9 34
e 9 36
e 9 38
e 9 45
e 9 46
e 9 50
e 9 55
e 10 20
e 10 24
e 10 29
e 10 38
e 10 44
e 10 55
e 11 15
e 11 23
e 11 34
e 11 37
e 11 42
e 11 56
e 12 13
e 12 15
e 12 20
e 12 21
e 12 29
e 12 49
e 13 15
e 13 35
e 13 40
e 14 15
e 14 25
e 14 28
e 14 29
e 14 38
e 14 48
e 14 58
e 15 20
e 15 39
e 16 22
e 16 26
e 16 58
e 17 20
e 17 26
e 17 43
e 18 20
e 18 41
e 18 50
e 18 56
e 19 21
e 19 45
e 19 47
e 19 48
e 19 54
e 20 32
e 20 44
e 20 56
e 21 26
e 21 35
e 21 41
e 21 50
e 21 51
e 22 23
e 22 24
e 22 28
e 22 31
e 22 40
e 22 48
e 22 49
e 23 24
e 23 34
e 23 43
e 23 49
e 25 30
e 25 33
e 25 41
e 25 44
e 25 51
e 25 59
e 25 61
e 26 27
e 26 29
e 26 30
e 26 35
e 26 44
e 26 56
e 26 59
e 27 34
e 27 47
e 27 51
e 27 54
e 28 42
e 28 48
e 28 52
e 28 54
e 28 56
e 28 58
e 29 41
e 29 60
e 30 32
e 30 34
e 30 38
e 30 42
e 30 44
e 31 35
e 31 36
e 31 41
e 32 35
e 32 54
e 33 40
e 33 47
e 33 52
e 33 53
e 33 59
e 34 47
e 34 49
e 34 53
e 35 58
e 36 38
e 36 42
e 36 56
e 37 39
e 37 46
e 38 45
e 39 44
e 39 48
e 39 51
e 39 54
e 40 48
e 40 53
e 40 55
e 40 58
e 41 44
e 41 58
e 42 45
e 42 56
e 43 58
e 43 59
e 44 51
e 44 52
e 45 52
e 45 54
e 45 61
e 46 50
e 46 60
e 46 61
e 47 56
e 47 58
e 48 53
e 48 57
e 50 55
e 50 56
e 50 58
e 53 59
e 54 59
e 55 56
e 57 60
e 59 61
